light_unrolled.smt2
; SMT-LIBv2 description generated by Yosys 0.53 (git sha1 53c22ab7c0ced80861c7536c5dae682c30fb5834, clang++ 17.0.0 -fPIC -O3)
; yosys-smt2-stdt
; yosys-smt2-module light
(declare-datatype |light_s| ((|light_mk|
  (|light_is| Bool)
  (|clock| Bool) ; \clock
  (|light_out| (_ BitVec 1)) ; \light_out
  (|state123| (_ BitVec 2)) ; \state123
  (|up| Bool) ; \up
)))
; yosys-smt2-input clock 1
; yosys-smt2-wire clock 1
; yosys-smt2-clock clock posedge
; yosys-smt2-witness {"offset": 0, "path": ["\\clock"], "smtname": "clock", "smtoffset": 0, "type": "posedge", "width": 1}
; yosys-smt2-witness {"offset": 0, "path": ["\\clock"], "smtname": "clock", "smtoffset": 0, "type": "input", "width": 1}
(define-fun |light_n clock| ((state |light_s|)) Bool (|clock| state))
; yosys-smt2-witness {"offset": 0, "path": ["\\light_out"], "smtname": 1, "smtoffset": 0, "type": "reg", "width": 1}
; yosys-smt2-output light_out 1
; yosys-smt2-register light_out 1
; yosys-smt2-wire light_out 1
(define-fun |light_n light_out| ((state |light_s|)) Bool (= ((_ extract 0 0) (|light_out| state)) #b1))
; yosys-smt2-witness {"offset": 0, "path": ["\\state123"], "smtname": 2, "smtoffset": 0, "type": "reg", "width": 2}
; yosys-smt2-register state123 2
; yosys-smt2-wire state123 2
(define-fun |light_n state123| ((state |light_s|)) (_ BitVec 2) (|state123| state))
; yosys-smt2-input up 1
; yosys-smt2-wire up 1
; yosys-smt2-witness {"offset": 0, "path": ["\\up"], "smtname": "up", "smtoffset": 0, "type": "input", "width": 1}
(define-fun |light_n up| ((state |light_s|)) Bool (|up| state))
(define-fun |light#4| ((state |light_s|)) (_ BitVec 2) (ite (|up| state) #b01 #b10)) ; $procmux$8_Y
(define-fun |light#5| ((state |light_s|)) Bool (= (|state123| state) #b10)) ; $procmux$5_CMP
(define-fun |light#6| ((state |light_s|)) Bool (= (|state123| state) #b01)) ; $procmux$6_CMP
(define-fun |light#7| ((state |light_s|)) Bool (not (or  (= ((_ extract 0 0) (|state123| state)) #b1) (= ((_ extract 1 1) (|state123| state)) #b1)))) ; $procmux$10_CMP
(define-fun |light#8| ((state |light_s|)) (_ BitVec 2) (ite (|light#7| state) (|light#4| state) (ite (|light#6| state) #b00 (ite (|light#5| state) #b00 (|state123| state))))) ; $0\state123[1:0]
(define-fun |light#9| ((state |light_s|)) Bool (= (|state123| state) #b10)) ; $procmux$12_CMP
(define-fun |light#10| ((state |light_s|)) Bool (= (|state123| state) #b01)) ; $procmux$13_CMP
(define-fun |light#11| ((state |light_s|)) Bool (not (or  (= ((_ extract 0 0) (|state123| state)) #b1) (= ((_ extract 1 1) (|state123| state)) #b1)))) ; $procmux$16_CMP
(define-fun |light#12| ((state |light_s|)) (_ BitVec 1) (ite (|light#11| state) #b1 (ite (|light#10| state) #b0 (ite (|light#9| state) #b0 (|light_out| state))))) ; $0\l[0:0]
(define-fun |light_a| ((state |light_s|)) Bool true)
(define-fun |light_u| ((state |light_s|)) Bool true)
(define-fun |light_i| ((state |light_s|)) Bool (and
  (= (= ((_ extract 0 0) (|light_out| state)) #b1) false) ; light_out
  (= (|state123| state) #b00) ; state123
))
(define-fun |light_h| ((state |light_s|)) Bool true)
(define-fun |light_t| ((state |light_s|) (next_state |light_s|)) Bool (and
  (= (|light#8| state) (|state123| next_state)) ; $procdff$18 \state123
  (= (|light#12| state) (|light_out| next_state)) ; $procdff$17 \light_out
)) ; end of module light
; yosys-smt2-topmod light
; end of yosys output

; Probes for variable light_out
(declare-const |probe_light_out_q_0| Bool)
(declare-const |probe_light_out_q_1| Bool)
(declare-const |probe_light_out_q_2| Bool)
(declare-const |probe_light_out_q_3| Bool)
(declare-const |probe_light_out_q_4| Bool)
(declare-const |probe_light_out_q_5| Bool)
(declare-const |probe_light_out_q_6| Bool)
(declare-const |probe_light_out_q_7| Bool)
(declare-const |probe_light_out_q_8| Bool)
(declare-const |probe_light_out_q_9| Bool)
(declare-const |probe_light_out_q_10| Bool)
(declare-const |probe_light_out_q_11| Bool)
(declare-const |probe_light_out_q_12| Bool)
(declare-const |probe_light_out_q_13| Bool)
(declare-const |probe_light_out_q_14| Bool)
(declare-const |probe_light_out_q_15| Bool)
(declare-const |probe_light_out_q_16| Bool)
(declare-const |probe_light_out_q_17| Bool)
(declare-const |probe_light_out_q_18| Bool)
(declare-const |probe_light_out_q_19| Bool)
(declare-const |probe_light_out_q_20| Bool)
(declare-const |probe_light_out_q_21| Bool)
(declare-const |probe_light_out_q_22| Bool)
(declare-const |probe_light_out_q_23| Bool)
(declare-const |probe_light_out_q_24| Bool)
(declare-const |probe_light_out_q_25| Bool)
(declare-const |probe_light_out_q_26| Bool)
(declare-const |probe_light_out_q_27| Bool)
(declare-const |probe_light_out_q_28| Bool)
(declare-const |probe_light_out_q_29| Bool)
(declare-const |probe_light_out_q_30| Bool)
(declare-const |probe_light_out_q_31| Bool)
(declare-const |probe_light_out_q_32| Bool)
(declare-const |probe_light_out_q_33| Bool)
(declare-const |probe_light_out_q_34| Bool)
(declare-const |probe_light_out_q_35| Bool)
(declare-const |probe_light_out_q_36| Bool)
(declare-const |probe_light_out_q_37| Bool)
(declare-const |probe_light_out_q_38| Bool)
(declare-const |probe_light_out_q_39| Bool)
(declare-const |probe_light_out_q_40| Bool)
(declare-const |probe_light_out_q_41| Bool)
(declare-const |probe_light_out_q_42| Bool)
(declare-const |probe_light_out_q_43| Bool)
(declare-const |probe_light_out_q_44| Bool)
(declare-const |probe_light_out_q_45| Bool)
(declare-const |probe_light_out_q_46| Bool)
(declare-const |probe_light_out_q_47| Bool)
(declare-const |probe_light_out_q_48| Bool)
(declare-const |probe_light_out_q_49| Bool)
(declare-const |probe_light_out_q_50| Bool)
(declare-const |probe_light_out_q_51| Bool)
(declare-const |probe_light_out_q_52| Bool)
(declare-const |probe_light_out_q_53| Bool)
(declare-const |probe_light_out_q_54| Bool)
(declare-const |probe_light_out_q_55| Bool)
(declare-const |probe_light_out_q_56| Bool)
(declare-const |probe_light_out_q_57| Bool)
(declare-const |probe_light_out_q_58| Bool)
(declare-const |probe_light_out_q_59| Bool)
(declare-const |probe_light_out_q_60| Bool)
(declare-const |probe_light_out_q_61| Bool)
(declare-const |probe_light_out_q_62| Bool)
(declare-const |probe_light_out_q_63| Bool)
(declare-const |probe_light_out_q_64| Bool)
(declare-const |probe_light_out_q_65| Bool)
(declare-const |probe_light_out_q_66| Bool)
(declare-const |probe_light_out_q_67| Bool)
(declare-const |probe_light_out_q_68| Bool)
(declare-const |probe_light_out_q_69| Bool)
(declare-const |probe_light_out_q_70| Bool)
(declare-const |probe_light_out_q_71| Bool)
(declare-const |probe_light_out_q_72| Bool)
(declare-const |probe_light_out_q_73| Bool)
(declare-const |probe_light_out_q_74| Bool)
(declare-const |probe_light_out_q_75| Bool)
(declare-const |probe_light_out_q_76| Bool)
(declare-const |probe_light_out_q_77| Bool)
(declare-const |probe_light_out_q_78| Bool)
(declare-const |probe_light_out_q_79| Bool)
(declare-const |probe_light_out_q_80| Bool)
(declare-const |probe_light_out_q_81| Bool)
(declare-const |probe_light_out_q_82| Bool)
(declare-const |probe_light_out_q_83| Bool)
(declare-const |probe_light_out_q_84| Bool)
(declare-const |probe_light_out_q_85| Bool)
(declare-const |probe_light_out_q_86| Bool)
(declare-const |probe_light_out_q_87| Bool)
(declare-const |probe_light_out_q_88| Bool)
(declare-const |probe_light_out_q_89| Bool)
(declare-const |probe_light_out_q_90| Bool)
(declare-const |probe_light_out_q_91| Bool)
(declare-const |probe_light_out_q_92| Bool)
(declare-const |probe_light_out_q_93| Bool)
(declare-const |probe_light_out_q_94| Bool)
(declare-const |probe_light_out_q_95| Bool)
(declare-const |probe_light_out_q_96| Bool)
(declare-const |probe_light_out_q_97| Bool)
(declare-const |probe_light_out_q_98| Bool)
(declare-const |probe_light_out_q_99| Bool)
(declare-const |probe_light_out_q_100| Bool)
(declare-const |probe_light_out_q_101| Bool)

; Unrolled states
(declare-const |s_q_0| |light_s|)
(declare-const |s_q_1| |light_s|)
(declare-const |s_q_2| |light_s|)
(declare-const |s_q_3| |light_s|)
(declare-const |s_q_4| |light_s|)
(declare-const |s_q_5| |light_s|)
(declare-const |s_q_6| |light_s|)
(declare-const |s_q_7| |light_s|)
(declare-const |s_q_8| |light_s|)
(declare-const |s_q_9| |light_s|)
(declare-const |s_q_10| |light_s|)
(declare-const |s_q_11| |light_s|)
(declare-const |s_q_12| |light_s|)
(declare-const |s_q_13| |light_s|)
(declare-const |s_q_14| |light_s|)
(declare-const |s_q_15| |light_s|)
(declare-const |s_q_16| |light_s|)
(declare-const |s_q_17| |light_s|)
(declare-const |s_q_18| |light_s|)
(declare-const |s_q_19| |light_s|)
(declare-const |s_q_20| |light_s|)
(declare-const |s_q_21| |light_s|)
(declare-const |s_q_22| |light_s|)
(declare-const |s_q_23| |light_s|)
(declare-const |s_q_24| |light_s|)
(declare-const |s_q_25| |light_s|)
(declare-const |s_q_26| |light_s|)
(declare-const |s_q_27| |light_s|)
(declare-const |s_q_28| |light_s|)
(declare-const |s_q_29| |light_s|)
(declare-const |s_q_30| |light_s|)
(declare-const |s_q_31| |light_s|)
(declare-const |s_q_32| |light_s|)
(declare-const |s_q_33| |light_s|)
(declare-const |s_q_34| |light_s|)
(declare-const |s_q_35| |light_s|)
(declare-const |s_q_36| |light_s|)
(declare-const |s_q_37| |light_s|)
(declare-const |s_q_38| |light_s|)
(declare-const |s_q_39| |light_s|)
(declare-const |s_q_40| |light_s|)
(declare-const |s_q_41| |light_s|)
(declare-const |s_q_42| |light_s|)
(declare-const |s_q_43| |light_s|)
(declare-const |s_q_44| |light_s|)
(declare-const |s_q_45| |light_s|)
(declare-const |s_q_46| |light_s|)
(declare-const |s_q_47| |light_s|)
(declare-const |s_q_48| |light_s|)
(declare-const |s_q_49| |light_s|)
(declare-const |s_q_50| |light_s|)
(declare-const |s_q_51| |light_s|)
(declare-const |s_q_52| |light_s|)
(declare-const |s_q_53| |light_s|)
(declare-const |s_q_54| |light_s|)
(declare-const |s_q_55| |light_s|)
(declare-const |s_q_56| |light_s|)
(declare-const |s_q_57| |light_s|)
(declare-const |s_q_58| |light_s|)
(declare-const |s_q_59| |light_s|)
(declare-const |s_q_60| |light_s|)
(declare-const |s_q_61| |light_s|)
(declare-const |s_q_62| |light_s|)
(declare-const |s_q_63| |light_s|)
(declare-const |s_q_64| |light_s|)
(declare-const |s_q_65| |light_s|)
(declare-const |s_q_66| |light_s|)
(declare-const |s_q_67| |light_s|)
(declare-const |s_q_68| |light_s|)
(declare-const |s_q_69| |light_s|)
(declare-const |s_q_70| |light_s|)
(declare-const |s_q_71| |light_s|)
(declare-const |s_q_72| |light_s|)
(declare-const |s_q_73| |light_s|)
(declare-const |s_q_74| |light_s|)
(declare-const |s_q_75| |light_s|)
(declare-const |s_q_76| |light_s|)
(declare-const |s_q_77| |light_s|)
(declare-const |s_q_78| |light_s|)
(declare-const |s_q_79| |light_s|)
(declare-const |s_q_80| |light_s|)
(declare-const |s_q_81| |light_s|)
(declare-const |s_q_82| |light_s|)
(declare-const |s_q_83| |light_s|)
(declare-const |s_q_84| |light_s|)
(declare-const |s_q_85| |light_s|)
(declare-const |s_q_86| |light_s|)
(declare-const |s_q_87| |light_s|)
(declare-const |s_q_88| |light_s|)
(declare-const |s_q_89| |light_s|)
(declare-const |s_q_90| |light_s|)
(declare-const |s_q_91| |light_s|)
(declare-const |s_q_92| |light_s|)
(declare-const |s_q_93| |light_s|)
(declare-const |s_q_94| |light_s|)
(declare-const |s_q_95| |light_s|)
(declare-const |s_q_96| |light_s|)
(declare-const |s_q_97| |light_s|)
(declare-const |s_q_98| |light_s|)
(declare-const |s_q_99| |light_s|)
(declare-const |s_q_100| |light_s|)
(declare-const |s_q_101| |light_s|)

; Initial and Next-state constraints
(assert (and (|light_i| |s_q_0|) (|light_t| s_q_0 s_q_1) (|light_t| s_q_1 s_q_2) (|light_t| s_q_2 s_q_3) (|light_t| s_q_3 s_q_4) (|light_t| s_q_4 s_q_5) (|light_t| s_q_5 s_q_6) (|light_t| s_q_6 s_q_7) (|light_t| s_q_7 s_q_8) (|light_t| s_q_8 s_q_9) (|light_t| s_q_9 s_q_10) (|light_t| s_q_10 s_q_11) (|light_t| s_q_11 s_q_12) (|light_t| s_q_12 s_q_13) (|light_t| s_q_13 s_q_14) (|light_t| s_q_14 s_q_15) (|light_t| s_q_15 s_q_16) (|light_t| s_q_16 s_q_17) (|light_t| s_q_17 s_q_18) (|light_t| s_q_18 s_q_19) (|light_t| s_q_19 s_q_20) (|light_t| s_q_20 s_q_21) (|light_t| s_q_21 s_q_22) (|light_t| s_q_22 s_q_23) (|light_t| s_q_23 s_q_24) (|light_t| s_q_24 s_q_25) (|light_t| s_q_25 s_q_26) (|light_t| s_q_26 s_q_27) (|light_t| s_q_27 s_q_28) (|light_t| s_q_28 s_q_29) (|light_t| s_q_29 s_q_30) (|light_t| s_q_30 s_q_31) (|light_t| s_q_31 s_q_32) (|light_t| s_q_32 s_q_33) (|light_t| s_q_33 s_q_34) (|light_t| s_q_34 s_q_35) (|light_t| s_q_35 s_q_36) (|light_t| s_q_36 s_q_37) (|light_t| s_q_37 s_q_38) (|light_t| s_q_38 s_q_39) (|light_t| s_q_39 s_q_40) (|light_t| s_q_40 s_q_41) (|light_t| s_q_41 s_q_42) (|light_t| s_q_42 s_q_43) (|light_t| s_q_43 s_q_44) (|light_t| s_q_44 s_q_45) (|light_t| s_q_45 s_q_46) (|light_t| s_q_46 s_q_47) (|light_t| s_q_47 s_q_48) (|light_t| s_q_48 s_q_49) (|light_t| s_q_49 s_q_50) (|light_t| s_q_50 s_q_51) (|light_t| s_q_51 s_q_52) (|light_t| s_q_52 s_q_53) (|light_t| s_q_53 s_q_54) (|light_t| s_q_54 s_q_55) (|light_t| s_q_55 s_q_56) (|light_t| s_q_56 s_q_57) (|light_t| s_q_57 s_q_58) (|light_t| s_q_58 s_q_59) (|light_t| s_q_59 s_q_60) (|light_t| s_q_60 s_q_61) (|light_t| s_q_61 s_q_62) (|light_t| s_q_62 s_q_63) (|light_t| s_q_63 s_q_64) (|light_t| s_q_64 s_q_65) (|light_t| s_q_65 s_q_66) (|light_t| s_q_66 s_q_67) (|light_t| s_q_67 s_q_68) (|light_t| s_q_68 s_q_69) (|light_t| s_q_69 s_q_70) (|light_t| s_q_70 s_q_71) (|light_t| s_q_71 s_q_72) (|light_t| s_q_72 s_q_73) (|light_t| s_q_73 s_q_74) (|light_t| s_q_74 s_q_75) (|light_t| s_q_75 s_q_76) (|light_t| s_q_76 s_q_77) (|light_t| s_q_77 s_q_78) (|light_t| s_q_78 s_q_79) (|light_t| s_q_79 s_q_80) (|light_t| s_q_80 s_q_81) (|light_t| s_q_81 s_q_82) (|light_t| s_q_82 s_q_83) (|light_t| s_q_83 s_q_84) (|light_t| s_q_84 s_q_85) (|light_t| s_q_85 s_q_86) (|light_t| s_q_86 s_q_87) (|light_t| s_q_87 s_q_88) (|light_t| s_q_88 s_q_89) (|light_t| s_q_89 s_q_90) (|light_t| s_q_90 s_q_91) (|light_t| s_q_91 s_q_92) (|light_t| s_q_92 s_q_93) (|light_t| s_q_93 s_q_94) (|light_t| s_q_94 s_q_95) (|light_t| s_q_95 s_q_96) (|light_t| s_q_96 s_q_97) (|light_t| s_q_97 s_q_98) (|light_t| s_q_98 s_q_99) (|light_t| s_q_99 s_q_100) (|light_t| s_q_100 s_q_101) ))
; End of unrolling constraints
